c colouring generated by benchmark framework
p edge 989 48461
v 1 17
v 2 37
v 3 6
v 4 1
v 5 17
v 6 8
v 7 40
v 8 39
v 9 16
v 10 0
v 11 5
v 12 36
v 13 16
v 14 41
v 15 11
v 16 12
v 17 41
v 18 38
v 19 28
v 20 22
v 21 42
v 22 14
v 23 4
v 24 29
v 25 3
v 26 28
v 27 13
v 28 20
v 29 4
v 30 23
v 31 18
v 32 13
v 33 6
v 34 19
v 35 9
v 36 3
v 37 3
v 38 38
v 39 30
v 40 20
v 41 9
v 42 9
v 43 34
v 44 7
v 45 19
v 46 4
v 47 1
v 48 16
v 49 17
v 50 34
v 51 20
v 52 5
v 53 15
v 54 1
v 55 10
v 56 2
v 57 12
v 58 37
v 59 19
v 60 0
v 61 26
v 62 7
v 63 39
v 64 0
v 65 25
v 66 24
v 67 0
v 68 16
v 69 31
v 70 21
v 71 18
v 72 8
v 73 11
v 74 11
v 75 41
v 76 27
v 77 1
v 78 29
v 79 8
v 80 21
v 81 24
v 82 35
v 83 39
v 84 12
v 85 6
v 86 27
v 87 28
v 88 13
v 89 14
v 90 42
v 91 22
v 92 2
v 93 14
v 94 7
v 95 9
v 96 9
v 97 32
v 98 13
v 99 43
v 100 6
v 101 10
v 102 9
v 103 13
v 104 23
v 105 3
v 106 10
v 107 17
v 108 17
v 109 3
v 110 18
v 111 19
v 112 1
v 113 15
v 114 17
v 115 20
v 116 38
v 117 12
v 118 22
v 119 16
v 120 20
v 121 0
v 122 10
v 123 16
v 124 6
v 125 11
v 126 5
v 127 4
v 128 24
v 129 29
v 130 0
v 131 20
v 132 15
v 133 42
v 134 12
v 135 39
v 136 40
v 137 25
v 138 27
v 139 8
v 140 4
v 141 15
v 142 24
v 143 16
v 144 8
v 145 30
v 146 5
v 147 7
v 148 41
v 149 35
v 150 9
v 151 35
v 152 7
v 153 2
v 154 23
v 155 2
v 156 23
v 157 21
v 158 5
v 159 3
v 160 28
v 161 19
v 162 26
v 163 4
v 164 32
v 165 29
v 166 14
v 167 26
v 168 23
v 169 1
v 170 23
v 171 40
v 172 12
v 173 16
v 174 18
v 175 33
v 176 1
v 177 14
v 178 22
v 179 8
v 180 33
v 181 22
v 182 13
v 183 1
v 184 28
v 185 3
v 186 21
v 187 11
v 188 25
v 189 0
v 190 10
v 191 29
v 192 36
v 193 42
v 194 13
v 195 15
v 196 30
v 197 24
v 198 34
v 199 6
v 200 9
v 201 24
v 202 16
v 203 27
v 204 30
v 205 6
v 206 17
v 207 20
v 208 25
v 209 11
v 210 8
v 211 21
v 212 19
v 213 4
v 214 15
v 215 5
v 216 18
v 217 32
v 218 7
v 219 2
v 220 20
v 221 15
v 222 40
v 223 14
v 224 4
v 225 28
v 226 13
v 227 7
v 228 23
v 229 17
v 230 38
v 231 5
v 232 18
v 233 9
v 234 11
v 235 35
v 236 28
v 237 33
v 238 41
v 239 39
v 240 16
v 241 26
v 242 3
v 243 0
v 244 22
v 245 36
v 246 22
v 247 12
v 248 28
v 249 12
v 250 2
v 251 8
v 252 21
v 253 24
v 254 9
v 255 16
v 256 6
v 257 27
v 258 10
v 259 10
v 260 11
v 261 1
v 262 14
v 263 19
v 264 10
v 265 6
v 266 21
v 267 30
v 268 1
v 269 34
v 270 8
v 271 21
v 272 1
v 273 27
v 274 3
v 275 10
v 276 31
v 277 15
v 278 18
v 279 6
v 280 23
v 281 32
v 282 29
v 283 9
v 284 24
v 285 4
v 286 13
v 287 4
v 288 43
v 289 25
v 290 20
v 291 26
v 292 33
v 293 40
v 294 7
v 295 20
v 296 38
v 297 28
v 298 2
v 299 0
v 300 37
v 301 7
v 302 0
v 303 17
v 304 0
v 305 12
v 306 18
v 307 17
v 308 6
v 309 22
v 310 28
v 311 16
v 312 5
v 313 22
v 314 10
v 315 14
v 316 34
v 317 32
v 318 14
v 319 12
v 320 33
v 321 11
v 322 19
v 323 22
v 324 16
v 325 8
v 326 4
v 327 15
v 328 5
v 329 21
v 330 21
v 331 11
v 332 29
v 333 9
v 334 9
v 335 1
v 336 10
v 337 31
v 338 41
v 339 3
v 340 20
v 341 2
v 342 17
v 343 25
v 344 29
v 345 3
v 346 19
v 347 30
v 348 28
v 349 13
v 350 38
v 351 41
v 352 24
v 353 20
v 354 6
v 355 23
v 356 18
v 357 25
v 358 15
v 359 26
v 360 6
v 361 12
v 362 23
v 363 7
v 364 30
v 365 43
v 366 10
v 367 13
v 368 42
v 369 18
v 370 17
v 371 39
v 372 39
v 373 26
v 374 36
v 375 27
v 376 16
v 377 1
v 378 15
v 379 2
v 380 22
v 381 16
v 382 5
v 383 8
v 384 0
v 385 28
v 386 22
v 387 19
v 388 4
v 389 37
v 390 14
v 391 34
v 392 31
v 393 22
v 394 15
v 395 3
v 396 8
v 397 21
v 398 36
v 399 19
v 400 35
v 401 0
v 402 3
v 403 9
v 404 20
v 405 11
v 406 0
v 407 11
v 408 38
v 409 2
v 410 4
v 411 12
v 412 29
v 413 6
v 414 7
v 415 21
v 416 25
v 417 43
v 418 20
v 419 11
v 420 18
v 421 24
v 422 32
v 423 10
v 424 7
v 425 13
v 426 10
v 427 6
v 428 30
v 429 13
v 430 18
v 431 17
v 432 5
v 433 10
v 434 33
v 435 26
v 436 29
v 437 33
v 438 23
v 439 35
v 440 26
v 441 14
v 442 16
v 443 26
v 444 24
v 445 8
v 446 25
v 447 17
v 448 14
v 449 15
v 450 40
v 451 34
v 452 22
v 453 30
v 454 1
v 455 28
v 456 35
v 457 3
v 458 2
v 459 31
v 460 37
v 461 1
v 462 5
v 463 42
v 464 19
v 465 41
v 466 3
v 467 2
v 468 4
v 469 12
v 470 25
v 471 12
v 472 23
v 473 21
v 474 12
v 475 16
v 476 11
v 477 9
v 478 32
v 479 19
v 480 39
v 481 36
v 482 11
v 483 0
v 484 20
v 485 27
v 486 6
v 487 5
v 488 4
v 489 2
v 490 18
v 491 3
v 492 20
v 493 22
v 494 7
v 495 7
v 496 22
v 497 21
v 498 24
v 499 15
v 500 6
v 501 10
v 502 14
v 503 43
v 504 13
v 505 14
v 506 8
v 507 9
v 508 4
v 509 9
v 510 13
v 511 4
v 512 37
v 513 42
v 514 34
v 515 28
v 516 0
v 517 1
v 518 29
v 519 6
v 520 25
v 521 1
v 522 32
v 523 22
v 524 17
v 525 25
v 526 16
v 527 35
v 528 40
v 529 35
v 530 21
v 531 24
v 532 5
v 533 8
v 534 30
v 535 11
v 536 31
v 537 19
v 538 11
v 539 3
v 540 18
v 541 32
v 542 11
v 543 23
v 544 18
v 545 6
v 546 20
v 547 7
v 548 40
v 549 12
v 550 15
v 551 6
v 552 36
v 553 38
v 554 29
v 555 22
v 556 10
v 557 7
v 558 33
v 559 2
v 560 10
v 561 4
v 562 41
v 563 20
v 564 33
v 565 39
v 566 43
v 567 30
v 568 22
v 569 9
v 570 0
v 571 27
v 572 9
v 573 15
v 574 17
v 575 26
v 576 13
v 577 7
v 578 25
v 579 26
v 580 42
v 581 34
v 582 25
v 583 4
v 584 30
v 585 35
v 586 33
v 587 5
v 588 16
v 589 16
v 590 20
v 591 0
v 592 8
v 593 1
v 594 37
v 595 8
v 596 31
v 597 21
v 598 19
v 599 14
v 600 31
v 601 3
v 602 12
v 603 5
v 604 14
v 605 10
v 606 23
v 607 4
v 608 1
v 609 2
v 610 39
v 611 10
v 612 5
v 613 14
v 614 14
v 615 2
v 616 15
v 617 11
v 618 32
v 619 6
v 620 17
v 621 3
v 622 0
v 623 12
v 624 18
v 625 9
v 626 28
v 627 0
v 628 15
v 629 12
v 630 3
v 631 12
v 632 33
v 633 36
v 634 30
v 635 7
v 636 27
v 637 2
v 638 29
v 639 11
v 640 22
v 641 41
v 642 13
v 643 26
v 644 7
v 645 23
v 646 7
v 647 24
v 648 26
v 649 19
v 650 29
v 651 40
v 652 21
v 653 31
v 654 32
v 655 25
v 656 21
v 657 18
v 658 20
v 659 16
v 660 4
v 661 34
v 662 1
v 663 1
v 664 2
v 665 13
v 666 38
v 667 20
v 668 4
v 669 13
v 670 0
v 671 6
v 672 10
v 673 6
v 674 42
v 675 17
v 676 10
v 677 42
v 678 0
v 679 27
v 680 15
v 681 3
v 682 34
v 683 8
v 684 18
v 685 8
v 686 14
v 687 11
v 688 12
v 689 5
v 690 3
v 691 6
v 692 3
v 693 8
v 694 38
v 695 5
v 696 11
v 697 11
v 698 7
v 699 9
v 700 7
v 701 2
v 702 39
v 703 41
v 704 33
v 705 19
v 706 9
v 707 20
v 708 36
v 709 18
v 710 22
v 711 14
v 712 12
v 713 30
v 714 19
v 715 33
v 716 30
v 717 5
v 718 20
v 719 12
v 720 16
v 721 34
v 722 31
v 723 0
v 724 4
v 725 1
v 726 1
v 727 32
v 728 17
v 729 15
v 730 13
v 731 21
v 732 7
v 733 21
v 734 26
v 735 8
v 736 10
v 737 27
v 738 3
v 739 42
v 740 4
v 741 23
v 742 34
v 743 16
v 744 22
v 745 3
v 746 15
v 747 1
v 748 37
v 749 23
v 750 6
v 751 11
v 752 28
v 753 24
v 754 6
v 755 24
v 756 29
v 757 25
v 758 2
v 759 43
v 760 29
v 761 14
v 762 17
v 763 25
v 764 9
v 765 22
v 766 13
v 767 14
v 768 35
v 769 8
v 770 2
v 771 12
v 772 11
v 773 22
v 774 7
v 775 0
v 776 20
v 777 5
v 778 36
v 779 19
v 780 40
v 781 39
v 782 1
v 783 5
v 784 5
v 785 2
v 786 18
v 787 32
v 788 38
v 789 3
v 790 4
v 791 10
v 792 10
v 793 18
v 794 7
v 795 26
v 796 41
v 797 30
v 798 29
v 799 8
v 800 15
v 801 11
v 802 31
v 803 34
v 804 9
v 805 12
v 806 23
v 807 12
v 808 4
v 809 21
v 810 43
v 811 6
v 812 15
v 813 7
v 814 17
v 815 27
v 816 26
v 817 14
v 818 16
v 819 24
v 820 23
v 821 35
v 822 9
v 823 8
v 824 30
v 825 13
v 826 0
v 827 14
v 828 28
v 829 27
v 830 31
v 831 16
v 832 12
v 833 36
v 834 1
v 835 19
v 836 20
v 837 2
v 838 21
v 839 19
v 840 37
v 841 25
v 842 13
v 843 18
v 844 3
v 845 0
v 846 22
v 847 32
v 848 28
v 849 32
v 850 39
v 851 17
v 852 37
v 853 1
v 854 4
v 855 5
v 856 18
v 857 29
v 858 4
v 859 2
v 860 5
v 861 3
v 862 22
v 863 29
v 864 25
v 865 24
v 866 31
v 867 30
v 868 14
v 869 8
v 870 22
v 871 11
v 872 20
v 873 2
v 874 6
v 875 10
v 876 34
v 877 7
v 878 11
v 879 18
v 880 0
v 881 15
v 882 20
v 883 13
v 884 16
v 885 36
v 886 27
v 887 14
v 888 7
v 889 21
v 890 33
v 891 19
v 892 35
v 893 13
v 894 0
v 895 1
v 896 10
v 897 29
v 898 23
v 899 42
v 900 7
v 901 8
v 902 13
v 903 9
v 904 1
v 905 0
v 906 26
v 907 15
v 908 17
v 909 17
v 910 6
v 911 4
v 912 26
v 913 3
v 914 9
v 915 5
v 916 28
v 917 12
v 918 43
v 919 22
v 920 0
v 921 22
v 922 27
v 923 30
v 924 11
v 925 2
v 926 24
v 927 25
v 928 8
v 929 18
v 930 19
v 931 41
v 932 18
v 933 33
v 934 20
v 935 16
v 936 24
v 937 32
v 938 5
v 939 5
v 940 38
v 941 30
v 942 4
v 943 14
v 944 6
v 945 31
v 946 16
v 947 29
v 948 23
v 949 9
v 950 36
v 951 28
v 952 11
v 953 25
v 954 13
v 955 12
v 956 7
v 957 30
v 958 34
v 959 22
v 960 15
v 961 4
v 962 20
v 963 26
v 964 40
v 965 1
v 966 3
v 967 12
v 968 19
v 969 14
v 970 10
v 971 0
v 972 26
v 973 14
v 974 21
v 975 31
v 976 21
v 977 15
v 978 24
v 979 27
v 980 8
v 981 29
v 982 11
v 983 2
v 984 18
v 985 2
v 986 7
v 987 17
v 988 22
v 989 2
